benchmarks/VRPTW/TSPTW/solution/n20w180.002.txt.solution
1 17 2 13 19 14 10 7 18 6 4 11 16 5 20 8 12 21 15 3 9 
265
